\Problem name: mknap_1.lp

Maximize
 100 x1 + 600 x2 + 1200 x3 + 2400 x4 + 500 x5 + 2000 x6

Subject To
8 x1 + 12 x2 + 13 x3 + 64 x4 + 22 x5 + 41 x6 <= 80
8 x1 + 12 x2 + 13 x3 + 75 x4 + 22 x5 + 41 x6 <= 96
3 x1 + 6 x2 + 4 x3 + 18 x4 + 6 x5 + 4 x6 <= 20
5 x1 + 10 x2 + 8 x3 + 32 x4 + 6 x5 + 12 x6 <= 36
5 x1 + 13 x2 + 8 x3 + 42 x4 + 6 x5 + 20 x6 <= 44
5 x1 + 13 x2 + 8 x3 + 48 x4 + 6 x5 + 20 x6 <= 48
0 x1 + 0 x2 + 0 x3 + 0 x4 + 8 x5 + 0 x6 <= 10
3 x1 + 0 x2 + 4 x3 + 0 x4 + 8 x5 + 0 x6 <= 18
3 x1 + 2 x2 + 4 x3 + 0 x4 + 8 x5 + 4 x6 <= 22
3 x1 + 2 x2 + 4 x3 + 8 x4 + 8 x5 + 4 x6 <= 24

Binaries
x1
x2
x3
x4
x5
x6
End